benchmarks/VRPTW/TSPTW/solution/n100w100.004.txt.solution
1 98 13 79 23 70 28 90 16 12 58 72 49 40 35 4 14 96 95 77 100 20 93 55 53 31 92 41 8 42 26 44 25 63 43 34 3 48 45 91 39 19 66 80 89 5 65 37 76 60 83 75 22 97 61 11 18 71 33 81 69 78 74 59 68 32 82 30 67 73 36 86 84 52 54 15 21 7 57 50 62 24 38 10 99 88 87 29 64 47 56 2 46 27 51 6 9 17 85 101 94 
691
